Set parameter TokenServer to value "hpc-licenses.hpcc.usc.edu"
Set parameter TimeLimit to value 3600
Gurobi Optimizer version 9.5.1 build v9.5.1rc2 (linux64)
Thread count: 20 physical cores, 20 logical processors, using up to 20 threads
Optimize a model with 6007 rows, 4529 columns and 24534 nonzeros
Model fingerprint: 0x190c6e65
Variable types: 4506 continuous, 23 integer (23 binary)
Coefficient statistics:
  Matrix range     [1e+00, 1e+00]
  Objective range  [1e-03, 1e+00]
  Bounds range     [1e+00, 1e+00]
  RHS range        [1e+00, 9e+01]
Presolve removed 1520 rows and 1515 columns
Presolve time: 0.04s
Presolved: 4487 rows, 3014 columns, 21975 nonzeros
Variable types: 2994 continuous, 20 integer (20 binary)
Found heuristic solution: objective 222.8289097

Root relaxation: objective 2.302763e+02, 2297 iterations, 0.07 seconds (0.11 work units)

    Nodes    |    Current Node    |     Objective Bounds      |     Work
 Expl Unexpl |  Obj  Depth IntInf | Incumbent    BestBd   Gap | It/Node Time

     0     0  230.27627    0    2  222.82891  230.27627  3.34%     -    0s
H    0     0                     229.6898010  230.15301  0.20%     -    0s
     0     0  230.15301    0    5  229.68980  230.15301  0.20%     -    0s
     0     0  230.02364    0    5  229.68980  230.02364  0.15%     -    0s
     0     0  230.02364    0    2  229.68980  230.02364  0.15%     -    0s
     0     0  230.01683    0    5  229.68980  230.01683  0.14%     -    1s
     0     0  230.01683    0    5  229.68980  230.01683  0.14%     -    1s

Cutting planes:
  Gomory: 2
  MIR: 294
  RLT: 2

Explored 1 nodes (4272 simplex iterations) in 1.21 seconds (0.61 work units)
Thread count was 20 (of 20 available processors)

Solution count 2: 229.69 222.829 

Optimal solution found (tolerance 1.00e-04)
Best objective 2.296898010258e+02, best bound 2.296963792211e+02, gap 0.0029%



#########node  1
V1.8
#########node  2
0.1818181818181818,0.8181818181818182
#########node  3
1.0,0.0


Total Solving Time 1.5666401386260986
obj value 229.6898010258349
Policy Regret train (Sum) 6.574261261987341
Best Treatment Found train (%) 61.8
treatment classification acc train (%) 46.6
Policy Regret test (Sum) 108.72835269107836
Best Treatment Found test (%) 63.12
treatment classification acc test (%) 50.44
